53
150
105	4
104	2
103	3
102	4
100	1
98	2
97	2
96	1
95	2
91	4
90	1
89	2
87	1
86	1
84	2
82	1
79	2
78	2
77	1
76	1
75	4
74	2
73	1
72	1
71	1
70	1
69	1
66	3
65	1
64	1
63	1
61	3
60	1
59	2
57	3
56	2
54	1
53	1
52	4
51	2
50	2
49	2
46	2
45	2
44	2
43	2
42	1
39	2
37	1
36	3
34	2
33	2
31	2
